NAME : mr40
COMMENT : 40-city problem (DISC)
TYPE : TSP
DIMENSION : 40
EDGE_WEIGHT_TYPE : EUC_2D
NODE_COORD_SECTION
1 41 4
2 6 57
3 79 93
4 29 18
5 46 71
6 31 73
7 53 4
8 63 59
9 78 70
10 69 91
11 99 97
12 61 84
13 82 96
14 71 51
15 3 20
16 91 7
17 45 93
18 12 40
19 84 41
20 21 18
21 18 14
22 45 51
23 67 35
24 96 46
25 84 5
26 51 26
27 64 93
28 84 9
29 45 62
30 77 76
31 64 47
32 37 64
33 2 43
34 55 96
35 32 88
36 15 12
37 55 8
38 19 90
39 40 2
40 25 75
EOF
